NAME : ch130.tsp
TYPE : TOUR
DIMENSION : 130
TOUR_LENGTH : 6522.446620328162
TOUR_SECTION
1
41
39
71
130
50
2
80
46
20
118
35
54
17
31
34
27
19
100
116
24
15
29
95
79
38
92
73
99
74
75
52
9
57
56
65
82
101
123
111
119
84
36
32
113
25
48
68
63
70
97
26
7
88
69
64
86
124
129
61
109
76
11
5
45
16
128
105
62
112
117
115
28
83
30
59
90
125
85
66
78
121
126
114
3
108
8
18
21
33
22
37
47
40
23
122
55
51
60
120
53
49
58
72
91
6
102
10
14
67
96
13
93
44
42
4
106
12
87
81
103
77
94
89
110
98
43
104
107
127
-1
